NAME : ClusterId_242 
COMMENT : (Gillet and Johnson) 
TYPE : CVRP 
DIMENSION : 38 
EDGE_WEIGHT_TYPE : EUC_2D 
CAPACITY : 60 
NODE_COORD_SECTION 
242 110 0 
78 160 -50 
79 160 0 
70 150 -40 
71 150 0 
62 140 -30 
63 140 0 
54 130 -20 
56 130 20 
55 130 0 
46 120 -10 
48 120 10 
47 120 0 
52 110 -20 
53 110 20 
44 110 -10 
45 110 10 
60 110 -30 
76 110 -50 
68 110 -40 
41 100 -10 
43 100 10 
42 100 0 
49 90 -20 
51 90 20 
50 90 0 
57 80 -30 
58 80 0 
65 70 -40 
66 70 0 
73 60 -50 
74 60 0 
38 50 -50 
39 50 0 
30 40 -40 
31 40 0 
22 30 -30 
23 30 0 
DEMAND_SECTION 
242 2590
78 1
79 1
70 2
71 2
62 4
63 4
54 8
56 8
55 8
46 12
48 12
47 12
52 8
53 8
44 12
45 12
60 4
76 1
68 2
41 12
43 12
42 12
49 8
51 8
50 8
57 4
58 4
65 2
66 2
73 1
74 1
38 1
39 1
30 2
31 2
22 4
23 4
DEPOT_SECTION 
242
 -1
EOF